(declare-fun var0 () String)
(assert (str.in.re var0 (re.++ (re.* (re.union (str.to.re "TTT") (str.to.re "UUU"))) (re.++ (re.+ (re.* (str.to.re "S"))) (re.++ (re.union (re.* (str.to.re "PPP")) (re.union (str.to.re "Q") (str.to.re "R"))) (re.++ (re.+ (re.+ (str.to.re "OOO"))) (re.++ (re.+ (re.+ (str.to.re "NN"))) (re.++ (re.* (re.+ (str.to.re "M"))) (re.++ (re.union (re.* (str.to.re "JJ")) (re.union (str.to.re "K") (str.to.re "L"))) (re.++ (re.union (re.+ (str.to.re "HHH")) (re.+ (str.to.re "II"))) (re.++ (re.+ (re.union (str.to.re "F") (str.to.re "GGG"))) (re.++ (re.union (re.* (str.to.re "D")) (re.* (str.to.re "E"))) (re.++ (re.union (re.union (str.to.re "A") (str.to.re "BBB")) (re.* (str.to.re "CCC"))) (re.++ (re.* (re.+ (str.to.re "zz"))) (re.++ (re.* (re.union (str.to.re "x") (str.to.re "y"))) (re.++ (re.union (re.union (str.to.re "ttt") (str.to.re "uu")) (re.union (str.to.re "vvv") (str.to.re "www"))) (re.++ (re.* (re.+ (str.to.re "sss"))) (re.++ (re.* (re.* (str.to.re "r"))) (re.++ (re.* (re.+ (str.to.re "qq"))) (re.++ (re.* (re.union (str.to.re "o") (str.to.re "p"))) (re.++ (re.union (re.* (str.to.re "mmm")) (re.* (str.to.re "nnn"))) (re.++ (re.union (re.union (str.to.re "j") (str.to.re "kkk")) (re.* (str.to.re "lll"))) (re.++ (re.* (re.union (str.to.re "hhh") (str.to.re "i"))) (re.++ (re.union (re.* (str.to.re "fff")) (re.* (str.to.re "gg"))) (re.++ (re.+ (re.* (str.to.re "eee"))) (re.++ (re.* (re.* (str.to.re "dd"))) (re.++ (re.* (re.union (str.to.re "bb") (str.to.re "cc"))) (re.++ (re.+ (re.union (str.to.re "999") (str.to.re "aa"))) (re.++ (re.* (re.* (str.to.re "88"))) (re.++ (re.* (re.+ (str.to.re "777"))) (re.++ (re.union (re.* (str.to.re "55")) (re.+ (str.to.re "6"))) (re.++ (re.* (re.* (str.to.re "44"))) (re.++ (re.union (re.union (str.to.re "111") (str.to.re "2")) (re.* (str.to.re "3"))) (re.++ (re.+ (re.union (str.to.re "~~~") (str.to.re "000"))) (re.++ (re.+ (re.+ (str.to.re "}}"))) (re.++ (re.* (re.union (str.to.re "{") (str.to.re "|||"))) (re.++ (re.union (re.union (str.to.re "^") (str.to.re "_")) (re.+ (str.to.re "`"))) (re.++ (re.* (re.+ (str.to.re "]]]"))) (re.++ (re.+ (re.* (str.to.re "\\\\\\"))) (re.++ (re.* (re.+ (str.to.re "["))) (re.++ (re.+ (re.union (str.to.re "?") (str.to.re "@@@"))) (re.++ (re.* (re.union (str.to.re "=") (str.to.re ">>"))) (re.++ (re.* (re.union (str.to.re ";") (str.to.re "<<<"))) (re.++ (re.union (re.+ (str.to.re "//")) (re.+ (str.to.re ":"))) (re.++ (re.+ (re.union (str.to.re "-") (str.to.re "."))) (re.++ (re.* (re.union (str.to.re "++") (str.to.re ","))) (re.++ (re.union (re.+ (str.to.re "))")) (re.* (str.to.re "**"))) (re.++ (re.* (re.* (str.to.re "(("))) (re.++ (re.* (re.* (str.to.re "''"))) (re.++ (re.union (re.+ (str.to.re "%")) (re.* (str.to.re "&"))) (re.++ (re.* (re.* (str.to.re "$$$"))) (re.++ (re.+ (re.union (str.to.re """""""") (str.to.re "#"))) (re.++ (re.union (re.* (str.to.re "YY")) (re.union (str.to.re "ZZZ") (str.to.re "!!!"))) (re.++ (re.* (re.* (str.to.re "XXX"))) (re.++ (re.+ (re.+ (str.to.re "WWW"))) (re.++ (re.+ (re.* (str.to.re "VV"))) (re.++ (re.* (re.+ (str.to.re "U"))) (re.++ (re.* (re.* (str.to.re "TTT"))) (re.++ (re.union (re.+ (str.to.re "QQ")) (re.union (str.to.re "R") (str.to.re "SS"))) (re.++ (re.* (re.+ (str.to.re "PPP"))) (re.++ (re.* (re.+ (str.to.re "OO"))) (re.++ (re.union (re.union (str.to.re "LLL") (str.to.re "M")) (re.+ (str.to.re "N"))) (re.++ (re.+ (re.union (str.to.re "J") (str.to.re "K"))) (re.++ (re.+ (re.union (str.to.re "HH") (str.to.re "I"))) (re.++ (re.union (re.* (str.to.re "FFF")) (re.+ (str.to.re "GG"))) (re.++ (re.+ (re.union (str.to.re "D") (str.to.re "EE"))) (re.++ (re.+ (re.union (str.to.re "BBB") (str.to.re "CC"))) (re.++ (re.+ (re.* (str.to.re "AAA"))) (re.++ (re.union (re.union (str.to.re "www") (str.to.re "x")) (re.union (str.to.re "y") (str.to.re "z"))) (re.++ (re.* (re.+ (str.to.re "vv"))) (re.++ (re.union (re.union (str.to.re "s") (str.to.re "tt")) (re.* (str.to.re "uuu"))) (re.++ (re.union (re.+ (str.to.re "qqq")) (re.* (str.to.re "rr"))) (re.++ (re.+ (re.+ (str.to.re "pp"))) (re.++ (re.union (re.+ (str.to.re "mm")) (re.union (str.to.re "n") (str.to.re "o"))) (re.++ (re.union (re.union (str.to.re "jj") (str.to.re "k")) (re.+ (str.to.re "ll"))) (re.++ (re.* (re.+ (str.to.re "ii"))) (re.++ (re.union (re.* (str.to.re "fff")) (re.union (str.to.re "g") (str.to.re "hh"))) (re.++ (re.+ (re.+ (str.to.re "eee"))) (re.++ (re.* (re.+ (str.to.re "dd"))) (re.++ (re.* (re.+ (str.to.re "ccc"))) (re.++ (re.* (re.union (str.to.re "a") (str.to.re "bbb"))) (re.++ (re.* (re.union (str.to.re "888") (str.to.re "9"))) (re.++ (re.+ (re.* (str.to.re "777"))) (re.++ (re.+ (re.+ (str.to.re "66"))) (re.++ (re.union (re.union (str.to.re "33") (str.to.re "4")) (re.+ (str.to.re "55"))) (re.++ (re.* (re.+ (str.to.re "2"))) (re.* (re.union (str.to.re "0") (str.to.re "111")))))))))))))))))))))))))))))))))))))))))))))))))))))))))))))))))))))))))))))))))))))))))
(check-sat)